NAME : in_house_8_9
TYPE : TSP
DIMENSION : 8
EDGE_WEIGHT_TYPE : EXPLICIT
EDGE_WEIGHT_FORMAT : UPPER_ROW
COMMENT : INVERSION_SHIFT=3
EDGE_WEIGHT_SECTION
54
24
30
24
31
9
39
22
45
62
64
55
63
28
58
5
47
31
6
36
42
41
56
1
30
56
53
22
